Problem:    numero_esatto
Rows:       24
Columns:    100 (100 integer, 100 binary)
Non-zeros:  240
Status:     INTEGER OPTIMAL
Objective:  0 (MINimum)

   No.   Row name        Activity     Lower bound   Upper bound
------ ------------    ------------- ------------- -------------
     1 cifra[0]                    1             1             = 
     2 cifra[1]                    1             1             = 
     3 cifra[2]                    1             1             = 
     4 cifra[3]                    1             1             = 
     5 cifra[4]                    1             1             = 
     6 cifra[5]                    1             1             = 
     7 cifra[6]                    1             1             = 
     8 cifra[7]                    1             1             = 
     9 cifra[8]                    1             1             = 
    10 cifra[9]                    1             1             = 
    11 cifre_diverse[0]
                                   1             1             = 
    12 cifre_diverse[1]
                                   1             1             = 
    13 cifre_diverse[2]
                                   1             1             = 
    14 cifre_diverse[3]
                                   1             1             = 
    15 cifre_diverse[4]
                                   1             1             = 
    16 cifre_diverse[5]
                                   1             1             = 
    17 cifre_diverse[6]
                                   1             1             = 
    18 cifre_diverse[7]
                                   1             1             = 
    19 cifre_diverse[8]
                                   1             1             = 
    20 cifre_diverse[9]
                                   1             1             = 
    21 diff_A                     -8            -8             = 
    22 diff_B                     -2            -2             = 
    23 diff_C                     -1            -1             = 
    24 diff_D                     -4            -4             = 

   No. Column name       Activity     Lower bound   Upper bound
------ ------------    ------------- ------------- -------------
     1 n[0,0]       *              0             0             1 
     2 n[1,0]       *              0             0             1 
     3 n[2,0]       *              1             0             1 
     4 n[3,0]       *              0             0             1 
     5 n[4,0]       *              0             0             1 
     6 n[5,0]       *              0             0             1 
     7 n[6,0]       *              0             0             1 
     8 n[7,0]       *              0             0             1 
     9 n[8,0]       *              0             0             1 
    10 n[9,0]       *              0             0             1 
    11 n[0,1]       *              0             0             1 
    12 n[1,1]       *              0             0             1 
    13 n[2,1]       *              0             0             1 
    14 n[3,1]       *              0             0             1 
    15 n[4,1]       *              1             0             1 
    16 n[5,1]       *              0             0             1 
    17 n[6,1]       *              0             0             1 
    18 n[7,1]       *              0             0             1 
    19 n[8,1]       *              0             0             1 
    20 n[9,1]       *              0             0             1 
    21 n[0,2]       *              0             0             1 
    22 n[1,2]       *              0             0             1 
    23 n[2,2]       *              0             0             1 
    24 n[3,2]       *              0             0             1 
    25 n[4,2]       *              0             0             1 
    26 n[5,2]       *              1             0             1 
    27 n[6,2]       *              0             0             1 
    28 n[7,2]       *              0             0             1 
    29 n[8,2]       *              0             0             1 
    30 n[9,2]       *              0             0             1 
    31 n[0,3]       *              0             0             1 
    32 n[1,3]       *              0             0             1 
    33 n[2,3]       *              0             0             1 
    34 n[3,3]       *              1             0             1 
    35 n[4,3]       *              0             0             1 
    36 n[5,3]       *              0             0             1 
    37 n[6,3]       *              0             0             1 
    38 n[7,3]       *              0             0             1 
    39 n[8,3]       *              0             0             1 
    40 n[9,3]       *              0             0             1 
    41 n[0,4]       *              0             0             1 
    42 n[1,4]       *              1             0             1 
    43 n[2,4]       *              0             0             1 
    44 n[3,4]       *              0             0             1 
    45 n[4,4]       *              0             0             1 
    46 n[5,4]       *              0             0             1 
    47 n[6,4]       *              0             0             1 
    48 n[7,4]       *              0             0             1 
    49 n[8,4]       *              0             0             1 
    50 n[9,4]       *              0             0             1 
    51 n[0,5]       *              1             0             1 
    52 n[1,5]       *              0             0             1 
    53 n[2,5]       *              0             0             1 
    54 n[3,5]       *              0             0             1 
    55 n[4,5]       *              0             0             1 
    56 n[5,5]       *              0             0             1 
    57 n[6,5]       *              0             0             1 
    58 n[7,5]       *              0             0             1 
    59 n[8,5]       *              0             0             1 
    60 n[9,5]       *              0             0             1 
    61 n[0,6]       *              0             0             1 
    62 n[1,6]       *              0             0             1 
    63 n[2,6]       *              0             0             1 
    64 n[3,6]       *              0             0             1 
    65 n[4,6]       *              0             0             1 
    66 n[5,6]       *              0             0             1 
    67 n[6,6]       *              0             0             1 
    68 n[7,6]       *              0             0             1 
    69 n[8,6]       *              0             0             1 
    70 n[9,6]       *              1             0             1 
    71 n[0,7]       *              0             0             1 
    72 n[1,7]       *              0             0             1 
    73 n[2,7]       *              0             0             1 
    74 n[3,7]       *              0             0             1 
    75 n[4,7]       *              0             0             1 
    76 n[5,7]       *              0             0             1 
    77 n[6,7]       *              1             0             1 
    78 n[7,7]       *              0             0             1 
    79 n[8,7]       *              0             0             1 
    80 n[9,7]       *              0             0             1 
    81 n[0,8]       *              0             0             1 
    82 n[1,8]       *              0             0             1 
    83 n[2,8]       *              0             0             1 
    84 n[3,8]       *              0             0             1 
    85 n[4,8]       *              0             0             1 
    86 n[5,8]       *              0             0             1 
    87 n[6,8]       *              0             0             1 
    88 n[7,8]       *              0             0             1 
    89 n[8,8]       *              1             0             1 
    90 n[9,8]       *              0             0             1 
    91 n[0,9]       *              0             0             1 
    92 n[1,9]       *              0             0             1 
    93 n[2,9]       *              0             0             1 
    94 n[3,9]       *              0             0             1 
    95 n[4,9]       *              0             0             1 
    96 n[5,9]       *              0             0             1 
    97 n[6,9]       *              0             0             1 
    98 n[7,9]       *              1             0             1 
    99 n[8,9]       *              0             0             1 
   100 n[9,9]       *              0             0             1 

Integer feasibility conditions:

KKT.PE: max.abs.err = 0.00e+00 on row 0
        max.rel.err = 0.00e+00 on row 0
        High quality

KKT.PB: max.abs.err = 0.00e+00 on row 0
        max.rel.err = 0.00e+00 on row 0
        High quality

End of output
